minizinc/sudoku_problems2/sudoku_p11.dzn
%
% sudoku_p11.dzn
% See http://www.hakank.org/minizinc/sudoku_gcc.mzn
% 
% This problem is problem 11 from
% Gecode's sudoku.cpp
% http://www.gecode.org/gecode-doc-latest/sudoku_8cpp-source.html
% 
x = array2d(1..n, 1..n, [   
% Puzzle 6 from http://www.sudoku.org.uk/bifurcation.htm
% 11
  _,  _,  _,  6,  _,  _,  _,  _,  4,
  _,  3,  _,  _,  9,  _,  _,  2,  _,
  _,  6,  _,  8,  _,  _,  7,  _,  _,
  _,  _,  5,  _,  6,  _,  _,  _,  1,
  6,  7,  _,  3,  _,  1,  _,  5,  8,
  9,  _,  _,  _,  5,  _,  4,  _,  _,
  _,  _,  6,  _,  _,  3,  _,  9,  _,
  _,  1,  _,  _,  8,  _,  _,  6,  _,
  2,  _,  _,  _,  _,  6,  _,  _,  _
]);

n = 9;


